c This is QMaxSAT 2017 based on 14.07
c This is Glucose 3.0
c This is MiniSat 2.2.0
c WARNING: for repeatability, setting FPU to use double precision
c card = mrwto, comp = 0, pmodel = 0, narr = 6, mct = 29, verb = 0
cr firstCPXsol 0 0 0
c top = 167313
c |  Number of variables:    26214                                            |
c |  Number of clauses:      8279948                                          |
c |  Weight of hard clauses: 167313                                           |
c |  Number of soft clauses: 4872                                             |
c |  Number of unit soft clauses: 4872                                        |
c |  Maximum Cardinality (by unit): 1003872      (1003872     )               |
c last restart ## conflicts  :  0 991 
o 1261 | cpuTime 0.675892 s
c Sum of weights = 167312
c A number of soft clauses remained = 812
c MRWTO encoding for Pseudo-Boolean Constraints
c sizeMax=1261
c No.0 Divisor=11	generated by pow1
c No.1 Divisor=11	generated by pow1
c No.2 Divisor=11	generated by pow1
c p0= 11	p1= 11	p2= 11	
c number of digits = 4
c linkingVar[0].size = 11, linkingVar[1].size = 11, linkingVar[2].size = 11, linkingVar[3].size = 1, 
c Pseudo-Boolean Constraints: 18387 variables and 168610 clauses
c Sum of weights = 167312
c A number of soft clauses remained = 812
c MRWTO encoding for Pseudo-Boolean Constraints
c sizeMax=1261
c No.0 Divisor=11	generated by pow1
c No.1 Divisor=11	generated by pow1
c No.2 Divisor=11	generated by pow1
c p0= 11	p1= 11	p2= 11	
c number of digits = 4
c linkingVar[0].size = 11, linkingVar[1].size = 11, linkingVar[2].size = 11, linkingVar[3].size = 1, 
c Pseudo-Boolean Constraints: 18387 variables and 168610 clauses
c Sum of weights = 167312
c A number of soft clauses remained = 812
c MRWTO encoding for Pseudo-Boolean Constraints
c sizeMax=1261
c No.0 Divisor=11	generated by pow1
c No.1 Divisor=11	generated by pow1
c No.2 Divisor=11	generated by pow1
c p0= 11	p1= 11	p2= 11	
c number of digits = 4
c linkingVar[0].size = 11, linkingVar[1].size = 11, linkingVar[2].size = 11, linkingVar[3].size = 1, 
c Pseudo-Boolean Constraints: 18387 variables and 168610 clauses
c Sum of weights = 167312
c A number of soft clauses remained = 812
c MRWTO encoding for Pseudo-Boolean Constraints
c sizeMax=1261
c No.0 Divisor=11	generated by pow1
c No.1 Divisor=11	generated by pow1
c No.2 Divisor=11	generated by pow1
c p0= 11	p1= 11	p2= 11	
c number of digits = 4
c linkingVar[0].size = 11, linkingVar[1].size = 11, linkingVar[2].size = 11, linkingVar[3].size = 1, 
c Pseudo-Boolean Constraints: 18387 variables and 168610 clauses
c Sum of weights = 167312
c A number of soft clauses remained = 812
c MRWTO encoding for Pseudo-Boolean Constraints
c sizeMax=1261
c No.0 Divisor=11	generated by pow1
c No.1 Divisor=11	generated by pow1
c No.2 Divisor=11	generated by pow1
c p0= 11	p1= 11	p2= 11	
c number of digits = 4
c linkingVar[0].size = 11, linkingVar[1].size = 11, linkingVar[2].size = 11, linkingVar[3].size = 1, 
c Pseudo-Boolean Constraints: 18387 variables and 168610 clauses
c Sum of weights = 167312
c A number of soft clauses remained = 812
c MRWTO encoding for Pseudo-Boolean Constraints
c sizeMax=1261
c No.0 Divisor=11	generated by pow1
c No.1 Divisor=11	generated by pow1
c No.2 Divisor=11	generated by pow1
c p0= 11	p1= 11	p2= 11	
c number of digits = 4
c linkingVar[0].size = 11, linkingVar[1].size = 11, linkingVar[2].size = 11, linkingVar[3].size = 1, 
c Pseudo-Boolean Constraints: 18387 variables and 168610 clauses
c last restart ## conflicts  :  35 7327 
o 1190 | cpuTime 0.866406 s
c last restart ## conflicts  :  466 2865 
o 1184 | cpuTime 4.46675 s
c last restart ## conflicts  :  237 3278 
o 1140 | cpuTime 6.82259 s
c last restart ## conflicts  :  176 4204 
o 1126 | cpuTime 12.9369 s
c last restart ## conflicts  :  295 2998 
o 1071 | cpuTime 34.4655 s
c last restart ## conflicts  :  190 8707 
o 1047 | cpuTime 35.3282 s
c last restart ## conflicts  :  37 3951 
o 1034 | cpuTime 93.4788 s
c last restart ## conflicts  :  5 2542 
o 1012 | cpuTime 108.673 s
c last restart ## conflicts  :  161 2920 
o 991 | cpuTime 128.321 s
c last restart ## conflicts  :  598 4650 
o 939 | cpuTime 153.364 s
c last restart ## conflicts  :  1110 3070 
o 931 | cpuTime 177.829 s
c last restart ## conflicts  :  68 2781 
o 920 | cpuTime 498.487 s
c last restart ## conflicts  :  22 3762 
o 889 | cpuTime 544.028 s
c last restart ## conflicts  :  267 3315 
o 885 | cpuTime 581.602 s
c last restart ## conflicts  :  5 2661 
o 877 | cpuTime 1888 s
c last restart ## conflicts  :  89 2970 
o 858 | cpuTime 1972.24 s
c last restart ## conflicts  :  36 28986 
o 821 | cpuTime 1972.29 s
s UNKNOWN
c Search is stopped by a limit (maybe time-limit)
cr positiVarArr: [ | 9@1(1->9) | 204@1(8->1) | 255@1(9->23) | 665@1(23->27) | 762@1(27->8) | 844@2(1->3) | 871@2(2->1) | 904@2(3->5) | 986@2(5->29) | 1655@2(29->2) | 1710@3(1->28) | 1795@3(4->26) | 1839@3(6->12) | 2002@3(12->1) | 2413@3(26->6) | 2469@3(28->4) | 2547@4(1->24) | 2827@4(11->14) | 2918@4(14->18) | 2983@4(16->25) | 3036@4(18->20) | 3095@4(20->21) | 3104@4(21->1) | 3206@4(24->16) | 3230@4(25->11) | 3379@5(1->15) | 3557@5(7->19) | 3713@5(13->1) | 3777@5(15->7) | 3899@5(19->13) | 4215@6(1->10) | 4488@6(10->22) | 4670@6(17->1) | 4831@6(22->17) | ]
cr the 1-th chain: [ 1->9->23->27->8->1 ] (#non-depot=4) {#cumul.=5}
cr the 2-th chain: [ 1->3->5->29->2->1 ] (#non-depot=4) {#cumul.=9}
cr the 3-th chain: [ 1->28->4->26->6->12->1 ] (#non-depot=5) {#cumul.=14}
cr the 4-th chain: [ 1->24->16->25->11->14->18->20->21->1 ] (#non-depot=8) {#cumul.=22}
cr the 5-th chain: [ 1->15->7->19->13->1 ] (#non-depot=4) {#cumul.=26}
cr the 6-th chain: [ 1->10->22->17->1 ] (#non-depot=3) {#cumul.=29}
c Latest Answer = 0 by 18 loops
c restarts              : 27625
c conflicts             : 10711193       (2980 /sec)
c decisions             : 62850070       (0.00 % random) (17487 /sec)
c propagations          : 24736171815    (6882507 /sec)
c conflict literals     : 4040763592     (46.14 % deleted)
c Memory used           : 1584.00 MB
c CPU time              : 3594.06 s
